
(set-logic ALL) 

(declare-datatype MyList ((Nil) (Cons (head Real) (tail MyList)) )) 
(declare-fun l0 () MyList) 
(declare-fun l1 () MyList) 
(declare-fun l2 () MyList) 
(declare-fun l3 () MyList) 
(declare-fun i0 () Real) 
(declare-fun i1 () Real) 
(assert (and (= l1 Nil) (= l2 Nil) (= l0 l3) (= l0 l2)) )
(assert (= l1 Nil) )
(assert (and (= l1 Nil) (is-Cons l0) (= l0 Nil) (= l1 Nil)) )
(assert (is-Nil Nil) )
(assert (= l0 Nil) )
(assert (is-Nil l0) )
(assert (is-Nil Nil) )
(assert (not (= l1 Nil)) )
(check-sat)
